nNurses = 107;
nHours = 27;
minHours = 7;
maxHours = 11;
maxConsec = 7;
maxPresence = 19;
demand = [36, 34, 35, 38, 40, 37, 38, 37, 32, 36, 38, 35, 32, 33, 32, 36, 32, 35, 30, 34, 33, 33, 31, 31, 32, 31, 29];
